p tw 20 53
0 1
0 4
0 10
0 3
0 12
0 18
0 8
0 5
1 5
1 6
1 13
1 8
1 10
1 9
2 3
2 6
2 19
3 11
3 5
3 6
3 10
3 16
4 15
4 17
4 12
5 6
5 15
6 9
6 12
6 10
7 8
7 13
8 14
8 10
8 12
8 13
9 10
9 16
10 15
10 14
10 18
11 16
11 15
11 12
12 18
12 19
13 19
14 15
14 17
15 18
15 19
16 17
17 18
